RAW/CMTY/fspd-mid/CMT8Y.vrp_seed-7.out
865.5016884	0.854	207.927
