RAW/CMTY/fspd-mid/CMT8Y.vrp_seed-7.sol
Route #1: 50 33 81 9 35 71 65 66 20 51 1
Route #2: 88 62 19 11 64 49 36 47 48 7 52
Route #3: 6 96 99 59 93 85 91 100 37 98 92 97 95 94
Route #4: 27 69 70 30 32 90 63 10 31
Route #5: 5 61 16 86 38 44 14 43 42 87 13
Route #6: 28 76 77 3 79 78 34 29 24 68 80 12
Route #7: 89 60 83 84 17 45 46 8 82 18
Route #8: 26 4 56 23 67 39 25 55 54
Route #9: 53 40 21 73 72 74 75 22 41 15 57 2 58
Cost 865.501688